NAME: cuum880.tsp
TYPE: TSP
COMMENT: User-generated TSP file
DIMENSION: 880
EDGE_WEIGHT_TYPE: EUC_2D
NODE_COORD_SECTION
1 317.0 649.0
2 411.0 387.0
3 835.0 759.0
4 715.0 492.0
5 656.0 26.0
6 402.0 420.0
7 74.0 574.0
8 510.0 783.0
9 132.0 274.0
10 773.0 736.0
11 37.0 37.0
12 262.0 15.0
13 533.0 432.0
14 21.0 59.0
15 516.0 137.0
16 266.0 263.0
17 324.0 869.0
18 536.0 380.0
19 843.0 822.0
20 300.0 785.0
21 641.0 338.0
22 423.0 452.0
23 785.0 800.0
24 507.0 128.0
25 326.0 598.0
26 875.0 746.0
27 457.0 646.0
28 546.0 865.0
29 409.0 841.0
30 221.0 573.0
31 524.0 21.0
32 457.0 491.0
33 473.0 834.0
34 310.0 225.0
35 428.0 233.0
36 685.0 170.0
37 362.0 675.0
38 205.0 32.0
39 564.0 459.0
40 692.0 638.0
41 48.0 615.0
42 39.0 310.0
43 276.0 493.0
44 243.0 644.0
45 224.0 189.0
46 879.0 126.0
47 233.0 341.0
48 49.0 492.0
49 71.0 119.0
50 767.0 432.0
51 121.0 703.0
52 139.0 836.0
53 687.0 498.0
54 519.0 324.0
55 94.0 119.0
56 82.0 25.0
57 352.0 863.0
58 390.0 547.0
59 443.0 737.0
60 60.0 384.0
61 107.0 661.0
62 256.0 236.0
63 689.0 782.0
64 231.0 25.0
65 507.0 451.0
66 480.0 703.0
67 394.0 15.0
68 533.0 312.0
69 83.0 470.0
70 125.0 226.0
71 500.0 457.0
72 485.0 260.0
73 195.0 815.0
74 579.0 171.0
75 433.0 515.0
76 754.0 453.0
77 501.0 300.0
78 134.0 595.0
79 687.0 821.0
80 664.0 424.0
81 722.0 166.0
82 157.0 314.0
83 215.0 790.0
84 302.0 493.0
85 498.0 340.0
86 520.0 599.0
87 44.0 405.0
88 55.0 810.0
89 203.0 419.0
90 49.0 78.0
91 727.0 80.0
92 604.0 592.0
93 226.0 645.0
94 307.0 240.0
95 698.0 36.0
96 444.0 275.0
97 863.0 119.0
98 74.0 825.0
99 95.0 222.0
100 151.0 472.0
101 217.0 773.0
102 239.0 699.0
103 511.0 274.0
104 322.0 443.0
105 667.0 460.0
106 760.0 541.0
107 621.0 368.0
108 703.0 537.0
109 99.0 426.0
110 733.0 669.0
111 226.0 303.0
112 325.0 511.0
113 752.0 496.0
114 352.0 302.0
115 725.0 733.0
116 223.0 814.0
117 843.0 450.0
118 605.0 779.0
119 261.0 354.0
120 280.0 30.0
121 760.0 589.0
122 320.0 293.0
123 551.0 769.0
124 627.0 810.0
125 794.0 70.0
126 539.0 155.0
127 474.0 599.0
128 860.0 783.0
129 707.0 203.0
130 483.0 577.0
131 849.0 853.0
132 375.0 110.0
133 129.0 813.0
134 366.0 758.0
135 188.0 543.0
136 131.0 684.0
137 336.0 667.0
138 464.0 168.0
139 403.0 778.0
140 138.0 69.0
141 817.0 834.0
142 420.0 452.0
143 608.0 194.0
144 106.0 431.0
145 480.0 203.0
146 530.0 458.0
147 594.0 556.0
148 499.0 230.0
149 233.0 690.0
150 747.0 276.0
151 269.0 845.0
152 664.0 833.0
153 850.0 7.0
154 240.0 55.0
155 662.0 543.0
156 502.0 736.0
157 498.0 225.0
158 415.0 780.0
159 420.0 137.0
160 848.0 16.0
161 465.0 383.0
162 339.0 647.0
163 477.0 726.0
164 734.0 361.0
165 708.0 681.0
166 752.0 763.0
167 775.0 658.0
168 26.0 723.0
169 636.0 672.0
170 396.0 58.0
171 352.0 174.0
172 133.0 490.0
173 351.0 65.0
174 750.0 180.0
175 303.0 141.0
176 828.0 345.0
177 826.0 800.0
178 535.0 202.0
179 642.0 316.0
180 778.0 667.0
181 403.0 293.0
182 241.0 506.0
183 431.0 408.0
184 268.0 513.0
185 156.0 792.0
186 167.0 30.0
187 500.0 826.0
188 617.0 431.0
189 243.0 644.0
190 194.0 694.0
191 318.0 772.0
192 859.0 32.0
193 246.0 705.0
194 734.0 88.0
195 487.0 434.0
196 506.0 586.0
197 516.0 798.0
198 150.0 217.0
199 182.0 218.0
200 328.0 118.0
201 186.0 876.0
202 775.0 766.0
203 294.0 61.0
204 700.0 378.0
205 538.0 549.0
206 694.0 5.0
207 541.0 159.0
208 640.0 571.0
209 293.0 675.0
210 422.0 293.0
211 182.0 809.0
212 320.0 356.0
213 125.0 653.0
214 30.0 580.0
215 332.0 483.0
216 223.0 65.0
217 732.0 866.0
218 393.0 83.0
219 2.0 409.0
220 202.0 829.0
221 878.0 707.0
222 397.0 355.0
223 603.0 266.0
224 675.0 527.0
225 824.0 257.0
226 99.0 846.0
227 299.0 246.0
228 747.0 35.0
229 341.0 174.0
230 68.0 458.0
231 15.0 726.0
232 81.0 606.0
233 764.0 594.0
234 806.0 38.0
235 143.0 93.0
236 45.0 176.0
237 242.0 71.0
238 84.0 139.0
239 84.0 515.0
240 343.0 767.0
241 648.0 375.0
242 218.0 281.0
243 426.0 88.0
244 233.0 382.0
245 57.0 253.0
246 876.0 801.0
247 613.0 377.0
248 248.0 249.0
249 273.0 178.0
250 682.0 467.0
251 402.0 274.0
252 868.0 393.0
253 431.0 713.0
254 424.0 108.0
255 386.0 144.0
256 46.0 19.0
257 484.0 48.0
258 218.0 355.0
259 588.0 625.0
260 153.0 441.0
261 406.0 132.0
262 842.0 177.0
263 800.0 743.0
264 714.0 436.0
265 40.0 700.0
266 230.0 649.0
267 802.0 588.0
268 109.0 502.0
269 234.0 403.0
270 187.0 866.0
271 227.0 646.0
272 517.0 135.0
273 610.0 105.0
274 773.0 335.0
275 406.0 35.0
276 729.0 412.0
277 18.0 629.0
278 536.0 58.0
279 844.0 785.0
280 774.0 561.0
281 498.0 62.0
282 138.0 316.0
283 811.0 418.0
284 621.0 481.0
285 379.0 364.0
286 465.0 516.0
287 72.0 434.0
288 685.0 819.0
289 299.0 269.0
290 780.0 584.0
291 45.0 252.0
292 195.0 4.0
293 324.0 730.0
294 86.0 140.0
295 877.0 710.0
296 55.0 715.0
297 855.0 49.0
298 397.0 172.0
299 196.0 4.0
300 240.0 158.0
301 171.0 732.0
302 680.0 336.0
303 578.0 800.0
304 874.0 406.0
305 623.0 459.0
306 537.0 443.0
307 770.0 342.0
308 6.0 174.0
309 822.0 160.0
310 671.0 525.0
311 163.0 373.0
312 714.0 874.0
313 484.0 68.0
314 696.0 216.0
315 39.0 67.0
316 507.0 767.0
317 501.0 593.0
318 581.0 725.0
319 143.0 201.0
320 218.0 632.0
321 215.0 614.0
322 492.0 602.0
323 9.0 667.0
324 572.0 262.0
325 253.0 476.0
326 160.0 454.0
327 859.0 524.0
328 119.0 682.0
329 177.0 585.0
330 492.0 215.0
331 374.0 557.0
332 535.0 292.0
333 800.0 330.0
334 613.0 524.0
335 207.0 488.0
336 378.0 827.0
337 505.0 107.0
338 501.0 348.0
339 596.0 808.0
340 586.0 321.0
341 728.0 286.0
342 477.0 721.0
343 786.0 57.0
344 530.0 614.0
345 404.0 591.0
346 557.0 189.0
347 514.0 779.0
348 685.0 284.0
349 97.0 360.0
350 851.0 855.0
351 761.0 550.0
352 377.0 577.0
353 425.0 253.0
354 524.0 428.0
355 610.0 191.0
356 173.0 378.0
357 45.0 768.0
358 705.0 630.0
359 94.0 292.0
360 49.0 658.0
361 844.0 805.0
362 537.0 367.0
363 706.0 251.0
364 861.0 569.0
365 857.0 592.0
366 332.0 591.0
367 529.0 170.0
368 765.0 595.0
369 409.0 172.0
370 77.0 181.0
371 366.0 871.0
372 416.0 757.0
373 623.0 725.0
374 334.0 35.0
375 73.0 382.0
376 770.0 23.0
377 522.0 375.0
378 554.0 717.0
379 452.0 569.0
380 876.0 201.0
381 789.0 168.0
382 816.0 32.0
383 116.0 645.0
384 478.0 215.0
385 826.0 702.0
386 93.0 638.0
387 212.0 607.0
388 295.0 632.0
389 279.0 439.0
390 389.0 658.0
391 491.0 446.0
392 545.0 185.0
393 659.0 62.0
394 857.0 175.0
395 188.0 425.0
396 463.0 790.0
397 358.0 340.0
398 31.0 151.0
399 531.0 229.0
400 369.0 448.0
401 782.0 236.0
402 815.0 395.0
403 692.0 189.0
404 492.0 423.0
405 312.0 269.0
406 81.0 578.0
407 357.0 684.0
408 231.0 58.0
409 725.0 636.0
410 734.0 599.0
411 599.0 845.0
412 662.0 238.0
413 40.0 81.0
414 187.0 9.0
415 331.0 563.0
416 387.0 867.0
417 8.0 75.0
418 44.0 482.0
419 525.0 246.0
420 829.0 716.0
421 26.0 501.0
422 357.0 250.0
423 441.0 268.0
424 842.0 846.0
425 287.0 861.0
426 432.0 444.0
427 38.0 729.0
428 63.0 367.0
429 92.0 33.0
430 236.0 422.0
431 834.0 721.0
432 206.0 167.0
433 622.0 818.0
434 726.0 758.0
435 669.0 196.0
436 444.0 351.0
437 489.0 442.0
438 607.0 519.0
439 653.0 483.0
440 768.0 839.0
441 384.0 261.0
442 499.0 362.0
443 737.0 163.0
444 32.0 153.0
445 190.0 125.0
446 866.0 659.0
447 551.0 8.0
448 356.0 283.0
449 2.0 137.0
450 700.0 278.0
451 117.0 548.0
452 245.0 704.0
453 415.0 669.0
454 778.0 197.0
455 7.0 394.0
456 611.0 786.0
457 560.0 302.0
458 716.0 765.0
459 51.0 182.0
460 430.0 369.0
461 518.0 535.0
462 763.0 638.0
463 510.0 308.0
464 258.0 300.0
465 493.0 112.0
466 834.0 345.0
467 403.0 799.0
468 77.0 516.0
469 238.0 872.0
470 798.0 859.0
471 17.0 43.0
472 97.0 752.0
473 101.0 448.0
474 336.0 853.0
475 760.0 213.0
476 364.0 785.0
477 91.0 359.0
478 45.0 398.0
479 492.0 151.0
480 146.0 269.0
481 221.0 840.0
482 443.0 422.0
483 281.0 812.0
484 433.0 670.0
485 326.0 662.0
486 68.0 196.0
487 513.0 276.0
488 582.0 485.0
489 223.0 480.0
490 850.0 62.0
491 519.0 514.0
492 306.0 409.0
493 869.0 27.0
494 307.0 470.0
495 146.0 29.0
496 23.0 242.0
497 634.0 446.0
498 150.0 534.0
499 22.0 629.0
500 798.0 205.0
501 651.0 615.0
502 264.0 803.0
503 797.0 707.0
504 427.0 831.0
505 867.0 622.0
506 344.0 683.0
507 732.0 12.0
508 712.0 605.0
509 648.0 834.0
510 841.0 377.0
511 256.0 786.0
512 553.0 774.0
513 356.0 759.0
514 427.0 644.0
515 67.0 164.0
516 568.0 339.0
517 716.0 185.0
518 654.0 393.0
519 715.0 522.0
520 534.0 517.0
521 157.0 352.0
522 831.0 269.0
523 493.0 659.0
524 613.0 403.0
525 74.0 328.0
526 860.0 544.0
527 699.0 236.0
528 82.0 865.0
529 868.0 78.0
530 323.0 534.0
531 523.0 22.0
532 419.0 730.0
533 186.0 145.0
534 549.0 214.0
535 162.0 416.0
536 132.0 688.0
537 781.0 216.0
538 771.0 598.0
539 839.0 558.0
540 536.0 873.0
541 424.0 844.0
542 841.0 855.0
543 253.0 9.0
544 197.0 440.0
545 593.0 348.0
546 440.0 613.0
547 613.0 139.0
548 276.0 54.0
549 325.0 442.0
550 522.0 412.0
551 227.0 140.0
552 320.0 586.0
553 708.0 548.0
554 345.0 695.0
555 544.0 834.0
556 677.0 258.0
557 135.0 388.0
558 89.0 599.0
559 281.0 599.0
560 669.0 393.0
561 512.0 64.0
562 359.0 645.0
563 287.0 453.0
564 105.0 404.0
565 300.0 601.0
566 404.0 459.0
567 756.0 40.0
568 114.0 862.0
569 792.0 66.0
570 687.0 203.0
571 771.0 255.0
572 440.0 157.0
573 196.0 364.0
574 312.0 847.0
575 476.0 573.0
576 460.0 235.0
577 159.0 532.0
578 381.0 849.0
579 878.0 714.0
580 563.0 10.0
581 121.0 793.0
582 141.0 289.0
583 680.0 52.0
584 880.0 333.0
585 777.0 757.0
586 483.0 665.0
587 780.0 537.0
588 286.0 713.0
589 748.0 136.0
590 717.0 288.0
591 672.0 865.0
592 198.0 649.0
593 658.0 479.0
594 263.0 406.0
595 581.0 523.0
596 39.0 542.0
597 212.0 619.0
598 653.0 111.0
599 578.0 45.0
600 632.0 670.0
601 58.0 807.0
602 199.0 793.0
603 48.0 111.0
604 81.0 304.0
605 647.0 24.0
606 807.0 555.0
607 557.0 668.0
608 250.0 475.0
609 469.0 836.0
610 234.0 161.0
611 248.0 728.0
612 635.0 234.0
613 1.0 453.0
614 434.0 421.0
615 752.0 9.0
616 633.0 30.0
617 156.0 344.0
618 593.0 703.0
619 279.0 813.0
620 634.0 525.0
621 581.0 171.0
622 361.0 478.0
623 552.0 438.0
624 605.0 574.0
625 378.0 637.0
626 182.0 44.0
627 829.0 735.0
628 578.0 269.0
629 239.0 727.0
630 789.0 265.0
631 424.0 423.0
632 242.0 596.0
633 788.0 745.0
634 110.0 385.0
635 547.0 391.0
636 259.0 825.0
637 303.0 481.0
638 452.0 535.0
639 702.0 101.0
640 525.0 621.0
641 577.0 827.0
642 612.0 101.0
643 817.0 504.0
644 160.0 37.0
645 572.0 848.0
646 830.0 196.0
647 175.0 181.0
648 457.0 416.0
649 403.0 59.0
650 159.0 385.0
651 398.0 147.0
652 372.0 451.0
653 319.0 163.0
654 53.0 713.0
655 718.0 592.0
656 60.0 660.0
657 872.0 376.0
658 225.0 445.0
659 73.0 407.0
660 224.0 788.0
661 295.0 105.0
662 696.0 329.0
663 354.0 275.0
664 793.0 496.0
665 504.0 60.0
666 565.0 140.0
667 692.0 858.0
668 861.0 347.0
669 137.0 566.0
670 599.0 59.0
671 178.0 419.0
672 116.0 378.0
673 416.0 71.0
674 555.0 455.0
675 550.0 76.0
676 354.0 506.0
677 398.0 41.0
678 820.0 810.0
679 831.0 573.0
680 164.0 350.0
681 762.0 479.0
682 46.0 786.0
683 341.0 250.0
684 112.0 693.0
685 213.0 621.0
686 803.0 729.0
687 761.0 717.0
688 506.0 148.0
689 863.0 668.0
690 546.0 570.0
691 564.0 122.0
692 294.0 135.0
693 316.0 668.0
694 174.0 311.0
695 264.0 158.0
696 873.0 102.0
697 162.0 861.0
698 606.0 15.0
699 207.0 670.0
700 872.0 507.0
701 219.0 438.0
702 265.0 836.0
703 11.0 686.0
704 99.0 874.0
705 56.0 11.0
706 789.0 854.0
707 643.0 153.0
708 72.0 833.0
709 657.0 117.0
710 731.0 875.0
711 251.0 59.0
712 243.0 689.0
713 156.0 201.0
714 239.0 821.0
715 799.0 874.0
716 357.0 159.0
717 495.0 453.0
718 403.0 523.0
719 100.0 401.0
720 574.0 856.0
721 80.0 697.0
722 541.0 12.0
723 582.0 591.0
724 38.0 538.0
725 157.0 712.0
726 486.0 228.0
727 692.0 878.0
728 52.0 438.0
729 92.0 797.0
730 730.0 668.0
731 86.0 835.0
732 273.0 672.0
733 71.0 675.0
734 569.0 511.0
735 42.0 504.0
736 700.0 171.0
737 614.0 339.0
738 618.0 226.0
739 611.0 649.0
740 297.0 238.0
741 246.0 660.0
742 819.0 381.0
743 541.0 45.0
744 513.0 196.0
745 240.0 853.0
746 630.0 247.0
747 202.0 734.0
748 16.0 259.0
749 790.0 780.0
750 335.0 773.0
751 512.0 96.0
752 794.0 88.0
753 221.0 466.0
754 97.0 856.0
755 152.0 243.0
756 471.0 151.0
757 426.0 198.0
758 622.0 329.0
759 427.0 562.0
760 313.0 769.0
761 7.0 706.0
762 26.0 365.0
763 749.0 822.0
764 316.0 606.0
765 762.0 450.0
766 636.0 790.0
767 499.0 414.0
768 435.0 180.0
769 711.0 534.0
770 650.0 729.0
771 447.0 560.0
772 781.0 294.0
773 159.0 114.0
774 290.0 576.0
775 263.0 628.0
776 91.0 791.0
777 139.0 210.0
778 16.0 547.0
779 70.0 44.0
780 247.0 683.0
781 598.0 124.0
782 257.0 468.0
783 100.0 706.0
784 312.0 521.0
785 691.0 311.0
786 451.0 201.0
787 565.0 532.0
788 610.0 101.0
789 759.0 105.0
790 697.0 700.0
791 5.0 409.0
792 301.0 50.0
793 163.0 764.0
794 500.0 376.0
795 880.0 310.0
796 750.0 842.0
797 475.0 449.0
798 824.0 838.0
799 89.0 86.0
800 59.0 17.0
801 846.0 781.0
802 773.0 14.0
803 506.0 60.0
804 160.0 619.0
805 305.0 192.0
806 194.0 195.0
807 212.0 215.0
808 729.0 319.0
809 458.0 28.0
810 729.0 596.0
811 437.0 175.0
812 16.0 786.0
813 513.0 29.0
814 388.0 813.0
815 336.0 440.0
816 247.0 174.0
817 201.0 75.0
818 618.0 733.0
819 693.0 778.0
820 785.0 256.0
821 249.0 323.0
822 245.0 83.0
823 730.0 869.0
824 665.0 854.0
825 516.0 856.0
826 614.0 604.0
827 200.0 127.0
828 545.0 647.0
829 791.0 651.0
830 240.0 621.0
831 599.0 750.0
832 383.0 290.0
833 521.0 90.0
834 660.0 184.0
835 828.0 178.0
836 873.0 696.0
837 832.0 106.0
838 238.0 514.0
839 218.0 685.0
840 222.0 109.0
841 273.0 281.0
842 774.0 114.0
843 454.0 673.0
844 185.0 667.0
845 777.0 708.0
846 756.0 775.0
847 250.0 402.0
848 774.0 624.0
849 92.0 744.0
850 363.0 402.0
851 759.0 621.0
852 869.0 122.0
853 807.0 264.0
854 593.0 738.0
855 543.0 56.0
856 778.0 685.0
857 875.0 87.0
858 667.0 124.0
859 421.0 378.0
860 80.0 112.0
861 789.0 832.0
862 41.0 848.0
863 594.0 260.0
864 149.0 75.0
865 38.0 363.0
866 792.0 8.0
867 170.0 403.0
868 476.0 237.0
869 875.0 321.0
870 179.0 655.0
871 528.0 35.0
872 111.0 234.0
873 169.0 49.0
874 689.0 619.0
875 780.0 290.0
876 382.0 197.0
877 262.0 804.0
878 805.0 823.0
879 739.0 385.0
880 232.0 536.0
EOF





